70
    1    61    55
    2    49    46
    3    61    68
    4    35    41
    5    43    42
    6    24    25
    7    32    33
    8    12     5
    9    48    55
   10    16    12
   11    42    49
   12    47    41
   13    31    32
   14    54    54
   15    42    38
   16    20    24
   17    11     5
   18     1     2
   19    43    47
   20    29    24
   21    34    29
   22    11    13
   23    37    32
   24    19    12
   25    13    14
   26    69    68
   27    13     6
   28    11    15
   29    26    25
   30    57    59
   31    43    49
   32    10     7
   33    37    37
   34    30    29
   35    46    42
   36    38    37
   37    16    12
   38    23    20
   39    51    48
   40    49    50
   41    44    45
   42    12     7
   43    45    52
   44    50    55
   45    13    13
   46     8     8
   47    13    17
   48    26    23
   49    65    69
   50    40    44
   51    66    70
   52    43    44
   53    53    57
   54    59    56
   55     3    10
   56    54    53
   57     9    11
   58    30    24
   59    65    60
   60    11    18
   61    17    10
   62     6    10
   63    70    69
   64    59    66
   65    28    25
   66    19    18
   67    15    10
   68    43    36
   69    68    62
   70    12    11
71
